NAME : KROD99B.26179.tour
COMMENT : Cost = 0_26179
COMMENT : Found by LKH [Keld Helsgaun] Sun Sep 17 16:52:41 2017
TYPE : TOUR
DIMENSION : 99
TOUR_SECTION
1
49
80
51
45
8
65
37
93
89
97
48
69
22
57
28
35
66
74
7
60
73
23
41
88
11
17
96
31
26
87
13
78
40
83
38
90
53
62
16
84
58
39
3
82
6
18
46
12
27
21
55
94
86
91
47
19
36
50
2
99
29
34
61
59
52
5
54
25
10
9
20
24
81
14
67
32
44
98
30
79
75
71
56
77
64
85
95
63
76
42
4
43
92
70
72
15
68
33
-1
EOF
